certificates/rado_a14_c218_N53.cnf
c Rad2 upper bound instance: x1 + 14*x2 - x3 = 218, interval [1,53]
p cnf 53 400
1 7 16 0
-1 -7 -16 0
1 17 21 0
-1 -17 -21 0
1 18 35 0
-1 -18 -35 0
1 19 49 0
-1 -19 -49 0
2 8 16 0
-2 -8 -16 0
2 17 22 0
-2 -17 -22 0
2 18 36 0
-2 -18 -36 0
2 19 50 0
-2 -19 -50 0
3 9 16 0
-3 -9 -16 0
3 17 23 0
-3 -17 -23 0
3 18 37 0
-3 -18 -37 0
3 19 51 0
-3 -19 -51 0
4 10 16 0
-4 -10 -16 0
4 17 24 0
-4 -17 -24 0
4 18 38 0
-4 -18 -38 0
4 19 52 0
-4 -19 -52 0
5 11 16 0
-5 -11 -16 0
5 17 25 0
-5 -17 -25 0
5 18 39 0
-5 -18 -39 0
5 19 53 0
-5 -19 -53 0
6 12 16 0
-6 -12 -16 0
6 17 26 0
-6 -17 -26 0
6 18 40 0
-6 -18 -40 0
7 13 16 0
-7 -13 -16 0
7 17 27 0
-7 -17 -27 0
7 18 41 0
-7 -18 -41 0
8 14 16 0
-8 -14 -16 0
8 17 28 0
-8 -17 -28 0
8 18 42 0
-8 -18 -42 0
1 9 15 0
-1 -9 -15 0
9 15 16 0
-9 -15 -16 0
9 17 29 0
-9 -17 -29 0
9 18 43 0
-9 -18 -43 0
2 10 15 0
-2 -10 -15 0
10 16 0
-10 -16 0
10 17 30 0
-10 -17 -30 0
10 18 44 0
-10 -18 -44 0
3 11 15 0
-3 -11 -15 0
11 16 17 0
-11 -16 -17 0
11 17 31 0
-11 -17 -31 0
11 18 45 0
-11 -18 -45 0
4 12 15 0
-4 -12 -15 0
12 16 18 0
-12 -16 -18 0
12 17 32 0
-12 -17 -32 0
12 18 46 0
-12 -18 -46 0
5 13 15 0
-5 -13 -15 0
13 16 19 0
-13 -16 -19 0
13 17 33 0
-13 -17 -33 0
13 18 47 0
-13 -18 -47 0
6 14 15 0
-6 -14 -15 0
14 16 20 0
-14 -16 -20 0
14 17 34 0
-14 -17 -34 0
14 18 48 0
-14 -18 -48 0
7 15 0
-7 -15 0
15 16 21 0
-15 -16 -21 0
15 17 35 0
-15 -17 -35 0
15 18 49 0
-15 -18 -49 0
8 15 16 0
-8 -15 -16 0
16 22 0
-16 -22 0
16 17 36 0
-16 -17 -36 0
16 18 50 0
-16 -18 -50 0
9 15 17 0
-9 -15 -17 0
16 17 23 0
-16 -17 -23 0
17 37 0
-17 -37 0
17 18 51 0
-17 -18 -51 0
10 15 18 0
-10 -15 -18 0
16 18 24 0
-16 -18 -24 0
17 18 38 0
-17 -18 -38 0
18 52 0
-18 -52 0
11 15 19 0
-11 -15 -19 0
16 19 25 0
-16 -19 -25 0
17 19 39 0
-17 -19 -39 0
18 19 53 0
-18 -19 -53 0
12 15 20 0
-12 -15 -20 0
16 20 26 0
-16 -20 -26 0
17 20 40 0
-17 -20 -40 0
13 15 21 0
-13 -15 -21 0
16 21 27 0
-16 -21 -27 0
17 21 41 0
-17 -21 -41 0
14 15 22 0
-14 -15 -22 0
16 22 28 0
-16 -22 -28 0
17 22 42 0
-17 -22 -42 0
1 14 23 0
-1 -14 -23 0
15 23 0
-15 -23 0
16 23 29 0
-16 -23 -29 0
17 23 43 0
-17 -23 -43 0
2 14 24 0
-2 -14 -24 0
15 16 24 0
-15 -16 -24 0
16 24 30 0
-16 -24 -30 0
17 24 44 0
-17 -24 -44 0
3 14 25 0
-3 -14 -25 0
15 17 25 0
-15 -17 -25 0
16 25 31 0
-16 -25 -31 0
17 25 45 0
-17 -25 -45 0
4 14 26 0
-4 -14 -26 0
15 18 26 0
-15 -18 -26 0
16 26 32 0
-16 -26 -32 0
17 26 46 0
-17 -26 -46 0
5 14 27 0
-5 -14 -27 0
15 19 27 0
-15 -19 -27 0
16 27 33 0
-16 -27 -33 0
17 27 47 0
-17 -27 -47 0
6 14 28 0
-6 -14 -28 0
15 20 28 0
-15 -20 -28 0
16 28 34 0
-16 -28 -34 0
17 28 48 0
-17 -28 -48 0
7 14 29 0
-7 -14 -29 0
15 21 29 0
-15 -21 -29 0
16 29 35 0
-16 -29 -35 0
17 29 49 0
-17 -29 -49 0
8 14 30 0
-8 -14 -30 0
15 22 30 0
-15 -22 -30 0
16 30 36 0
-16 -30 -36 0
17 30 50 0
-17 -30 -50 0
9 14 31 0
-9 -14 -31 0
15 23 31 0
-15 -23 -31 0
16 31 37 0
-16 -31 -37 0
17 31 51 0
-17 -31 -51 0
10 14 32 0
-10 -14 -32 0
15 24 32 0
-15 -24 -32 0
16 32 38 0
-16 -32 -38 0
17 32 52 0
-17 -32 -52 0
11 14 33 0
-11 -14 -33 0
15 25 33 0
-15 -25 -33 0
16 33 39 0
-16 -33 -39 0
17 33 53 0
-17 -33 -53 0
12 14 34 0
-12 -14 -34 0
15 26 34 0
-15 -26 -34 0
16 34 40 0
-16 -34 -40 0
13 14 35 0
-13 -14 -35 0
15 27 35 0
-15 -27 -35 0
16 35 41 0
-16 -35 -41 0
14 36 0
-14 -36 0
15 28 36 0
-15 -28 -36 0
16 36 42 0
-16 -36 -42 0
1 13 37 0
-1 -13 -37 0
14 15 37 0
-14 -15 -37 0
15 29 37 0
-15 -29 -37 0
16 37 43 0
-16 -37 -43 0
2 13 38 0
-2 -13 -38 0
14 16 38 0
-14 -16 -38 0
15 30 38 0
-15 -30 -38 0
16 38 44 0
-16 -38 -44 0
3 13 39 0
-3 -13 -39 0
14 17 39 0
-14 -17 -39 0
15 31 39 0
-15 -31 -39 0
16 39 45 0
-16 -39 -45 0
4 13 40 0
-4 -13 -40 0
14 18 40 0
-14 -18 -40 0
15 32 40 0
-15 -32 -40 0
16 40 46 0
-16 -40 -46 0
5 13 41 0
-5 -13 -41 0
14 19 41 0
-14 -19 -41 0
15 33 41 0
-15 -33 -41 0
16 41 47 0
-16 -41 -47 0
6 13 42 0
-6 -13 -42 0
14 20 42 0
-14 -20 -42 0
15 34 42 0
-15 -34 -42 0
16 42 48 0
-16 -42 -48 0
7 13 43 0
-7 -13 -43 0
14 21 43 0
-14 -21 -43 0
15 35 43 0
-15 -35 -43 0
16 43 49 0
-16 -43 -49 0
8 13 44 0
-8 -13 -44 0
14 22 44 0
-14 -22 -44 0
15 36 44 0
-15 -36 -44 0
16 44 50 0
-16 -44 -50 0
9 13 45 0
-9 -13 -45 0
14 23 45 0
-14 -23 -45 0
15 37 45 0
-15 -37 -45 0
16 45 51 0
-16 -45 -51 0
10 13 46 0
-10 -13 -46 0
14 24 46 0
-14 -24 -46 0
15 38 46 0
-15 -38 -46 0
16 46 52 0
-16 -46 -52 0
11 13 47 0
-11 -13 -47 0
14 25 47 0
-14 -25 -47 0
15 39 47 0
-15 -39 -47 0
16 47 53 0
-16 -47 -53 0
12 13 48 0
-12 -13 -48 0
14 26 48 0
-14 -26 -48 0
15 40 48 0
-15 -40 -48 0
13 49 0
-13 -49 0
14 27 49 0
-14 -27 -49 0
15 41 49 0
-15 -41 -49 0
13 14 50 0
-13 -14 -50 0
14 28 50 0
-14 -28 -50 0
15 42 50 0
-15 -42 -50 0
1 12 51 0
-1 -12 -51 0
13 15 51 0
-13 -15 -51 0
14 29 51 0
-14 -29 -51 0
15 43 51 0
-15 -43 -51 0
2 12 52 0
-2 -12 -52 0
13 16 52 0
-13 -16 -52 0
14 30 52 0
-14 -30 -52 0
15 44 52 0
-15 -44 -52 0
3 12 53 0
-3 -12 -53 0
13 17 53 0
-13 -17 -53 0
14 31 53 0
-14 -31 -53 0
15 45 53 0
-15 -45 -53 0
