certificates/rado_a14_c218_N53.drat
13 18 -53 0
-52 -53 0
49 -53 0
-53 0
-49 0
13 0
-5 -18 0
d -39 -5 -18 0
19 0
-16 0
10 0
22 0
47 0
43 0
-17 0
36 0
23 0
-46 0
-18 0
-11 0
-7 0
37 0
0
